sing20210114.12
TTAA 64121 48698
99008 27248 05011 00098 26249 03510 92780 20218 36010
85507 17228 36007 70144 08832 26013 50586 05717 04511
40758 15320 11013 30970 29719 10035 25097 40521 10536
20245 53118 10555 15423 69144 09561 10653 82959 10080
88105 85738 10082
77102 10088=
TTCC 64125 48698
70862 72565 28016 50059 66573 33015
88999
77999=
TTDD 6412/ 48698
11933 72965 22738 71366 33605 75963 44565 75164 55540
70569 66474 65974
21212 11955 11040 22921 12020 33905 12510 44879 12505
55858 19011 66756 26003 77734 28010 88625 26025 99560
24510 11545 27507 22538 30010 33511 33013 44479 32518
55447 34015 66436 01516 77429 00515=
